NAME : OMNETRUN
COMMENT : 524.61
TYPE : CVRP
DIMENSION : 21
EDGE_WEIGHT_TYPE : EUC_2D
CAPACITY : 21
NODE_COORD_SECTION
1 0.107093 -0.77924
2 68.5887 -1207.69
3 119.554 -2504.79
4 91.9264 -3497.38
5 46.4344 -4005.02
6 391.673 -241.161
7 259.612 -646.97
8 326.957 -1849.01
9 491.772 -2565.99
10 288.054 -2988.21
11 456.194 -3330.45
12 441.098 -3890.84
13 450.454 -4345.32
14 669.598 -454.84
15 559.277 -1005.02
16 578.93 -1604.84
17 733.064 -2958.95
18 974.123 -643.306
19 978.977 -1931.73
20 857.905 -2320.54
21 951.953 -3488.86
DEMAND_SECTION
1 0
2 1
3 1
4 1
5 1
6 1
7 1
8 1
9 1
10 1
11 1
12 1
13 1
14 1
15 1
16 1
17 1
18 1
19 1
20 1
21 1
DEPOT_SECTION
1
-1
EOF
